Instance0
Gap





10.03%
10.03%
10.03%
9.38%
8.98%
8.93%
7.93%
CPXPARAM_MIP_Cuts_CPXPARAM_MIP_Cuts_Gomory-CPXPARAM_MIP_Cuts_Disjunctive-CPXPARAM_MIP_Cuts_MIRCut-CPXPARAM_MIP_Cuts_FlowCovers 0
Instance1
CPXPARAM_MIP_Cuts_CPXPARAM_MIP_Cuts_Gomory-CPXPARAM_MIP_Cuts_Disjunctive-CPXPARAM_MIP_Cuts_MIRCut-CPXPARAM_MIP_Cuts_FlowCovers 0
Instance2
CPXPARAM_MIP_Cuts_CPXPARAM_MIP_Cuts_Gomory-CPXPARAM_MIP_Cuts_Disjunctive-CPXPARAM_MIP_Cuts_MIRCut-CPXPARAM_MIP_Cuts_FlowCovers 5
Instance3
CPXPARAM_MIP_Cuts_CPXPARAM_MIP_Cuts_Gomory-CPXPARAM_MIP_Cuts_Disjunctive-CPXPARAM_MIP_Cuts_MIRCut-CPXPARAM_MIP_Cuts_FlowCovers 5
Instance4
Gap



67.95%
65.11%
60.96%
45.89%
45.14%
44.73%
44.73%
42.62%
CPXPARAM_MIP_Cuts_CPXPARAM_MIP_Cuts_Gomory-CPXPARAM_MIP_Cuts_Disjunctive-CPXPARAM_MIP_Cuts_MIRCut-CPXPARAM_MIP_Cuts_FlowCovers 1
Instance5
CPXPARAM_MIP_Cuts_CPXPARAM_MIP_Cuts_Gomory-CPXPARAM_MIP_Cuts_Disjunctive-CPXPARAM_MIP_Cuts_MIRCut-CPXPARAM_MIP_Cuts_FlowCovers 1
Instance6
CPXPARAM_MIP_Cuts_CPXPARAM_MIP_Cuts_Gomory-CPXPARAM_MIP_Cuts_Disjunctive-CPXPARAM_MIP_Cuts_MIRCut-CPXPARAM_MIP_Cuts_FlowCovers 0
Instance7
CPXPARAM_MIP_Cuts_CPXPARAM_MIP_Cuts_Gomory-CPXPARAM_MIP_Cuts_Disjunctive-CPXPARAM_MIP_Cuts_MIRCut-CPXPARAM_MIP_Cuts_FlowCovers 4
Instance8
Gap


0.35%
0.35%
0.35%
0.35%
0.35%
0.00%
CPXPARAM_MIP_Cuts_CPXPARAM_MIP_Cuts_Gomory-CPXPARAM_MIP_Cuts_Disjunctive-CPXPARAM_MIP_Cuts_MIRCut-CPXPARAM_MIP_Cuts_FlowCovers 0
Instance9
CPXPARAM_MIP_Cuts_CPXPARAM_MIP_Cuts_Gomory-CPXPARAM_MIP_Cuts_Disjunctive-CPXPARAM_MIP_Cuts_MIRCut-CPXPARAM_MIP_Cuts_FlowCovers 0
Instance10
CPXPARAM_MIP_Cuts_CPXPARAM_MIP_Cuts_Gomory-CPXPARAM_MIP_Cuts_Disjunctive-CPXPARAM_MIP_Cuts_MIRCut-CPXPARAM_MIP_Cuts_FlowCovers 2
Instance11
CPXPARAM_MIP_Cuts_CPXPARAM_MIP_Cuts_Gomory-CPXPARAM_MIP_Cuts_Disjunctive-CPXPARAM_MIP_Cuts_MIRCut-CPXPARAM_MIP_Cuts_FlowCovers 0
Instance12
Gap

0.00%
0
CPXPARAM_MIP_Cuts_CPXPARAM_MIP_Cuts_Gomory-CPXPARAM_MIP_Cuts_Disjunctive-CPXPARAM_MIP_Cuts_MIRCut-CPXPARAM_MIP_Cuts_FlowCovers 0
Instance13
CPXPARAM_MIP_Cuts_CPXPARAM_MIP_Cuts_Gomory-CPXPARAM_MIP_Cuts_Disjunctive-CPXPARAM_MIP_Cuts_MIRCut-CPXPARAM_MIP_Cuts_FlowCovers 0
Instance14
CPXPARAM_MIP_Cuts_CPXPARAM_MIP_Cuts_Gomory-CPXPARAM_MIP_Cuts_Disjunctive-CPXPARAM_MIP_Cuts_MIRCut-CPXPARAM_MIP_Cuts_FlowCovers 0
Instance15
CPXPARAM_MIP_Cuts_CPXPARAM_MIP_Cuts_Gomory-CPXPARAM_MIP_Cuts_Disjunctive-CPXPARAM_MIP_Cuts_MIRCut-CPXPARAM_MIP_Cuts_FlowCovers 0
Instance16
Gap



5.55%
5.55%
5.55%
5.06%
4.92%
4.88%
4.67%
CPXPARAM_MIP_Cuts_CPXPARAM_MIP_Cuts_Gomory-CPXPARAM_MIP_Cuts_Disjunctive-CPXPARAM_MIP_Cuts_MIRCut-CPXPARAM_MIP_Cuts_FlowCovers 0
Instance17
CPXPARAM_MIP_Cuts_CPXPARAM_MIP_Cuts_Gomory-CPXPARAM_MIP_Cuts_Disjunctive-CPXPARAM_MIP_Cuts_MIRCut-CPXPARAM_MIP_Cuts_FlowCovers 0
Instance18
CPXPARAM_MIP_Cuts_CPXPARAM_MIP_Cuts_Gomory-CPXPARAM_MIP_Cuts_Disjunctive-CPXPARAM_MIP_Cuts_MIRCut-CPXPARAM_MIP_Cuts_FlowCovers 7
Instance19
CPXPARAM_MIP_Cuts_CPXPARAM_MIP_Cuts_Gomory-CPXPARAM_MIP_Cuts_Disjunctive-CPXPARAM_MIP_Cuts_MIRCut-CPXPARAM_MIP_Cuts_FlowCovers 2
Instance20
Gap



74.89%
65.96%
58.35%
53.12%
52.57%
CPXPARAM_MIP_Cuts_CPXPARAM_MIP_Cuts_Gomory-CPXPARAM_MIP_Cuts_Disjunctive-CPXPARAM_MIP_Cuts_MIRCut-CPXPARAM_MIP_Cuts_FlowCovers 0
Instance21
CPXPARAM_MIP_Cuts_CPXPARAM_MIP_Cuts_Gomory-CPXPARAM_MIP_Cuts_Disjunctive-CPXPARAM_MIP_Cuts_MIRCut-CPXPARAM_MIP_Cuts_FlowCovers 0
Instance22
CPXPARAM_MIP_Cuts_CPXPARAM_MIP_Cuts_Gomory-CPXPARAM_MIP_Cuts_Disjunctive-CPXPARAM_MIP_Cuts_MIRCut-CPXPARAM_MIP_Cuts_FlowCovers 4
Instance23
CPXPARAM_MIP_Cuts_CPXPARAM_MIP_Cuts_Gomory-CPXPARAM_MIP_Cuts_Disjunctive-CPXPARAM_MIP_Cuts_MIRCut-CPXPARAM_MIP_Cuts_FlowCovers 4
Instance24
Gap
111.50%
92.96%
92.96%
92.96%
CPXPARAM_MIP_Cuts_CPXPARAM_MIP_Cuts_Gomory-CPXPARAM_MIP_Cuts_Disjunctive-CPXPARAM_MIP_Cuts_MIRCut-CPXPARAM_MIP_Cuts_FlowCovers 0
Instance25
CPXPARAM_MIP_Cuts_CPXPARAM_MIP_Cuts_Gomory-CPXPARAM_MIP_Cuts_Disjunctive-CPXPARAM_MIP_Cuts_MIRCut-CPXPARAM_MIP_Cuts_FlowCovers 0
Instance26
CPXPARAM_MIP_Cuts_CPXPARAM_MIP_Cuts_Gomory-CPXPARAM_MIP_Cuts_Disjunctive-CPXPARAM_MIP_Cuts_MIRCut-CPXPARAM_MIP_Cuts_FlowCovers 0
Instance27
CPXPARAM_MIP_Cuts_CPXPARAM_MIP_Cuts_Gomory-CPXPARAM_MIP_Cuts_Disjunctive-CPXPARAM_MIP_Cuts_MIRCut-CPXPARAM_MIP_Cuts_FlowCovers 1
Instance28
Gap

23.59%
23.59%
23.59%
23.59%
23.19%
18.99%
14.33%
11.02%
10.93%
0
CPXPARAM_MIP_Cuts_CPXPARAM_MIP_Cuts_Gomory-CPXPARAM_MIP_Cuts_Disjunctive-CPXPARAM_MIP_Cuts_MIRCut-CPXPARAM_MIP_Cuts_FlowCovers 0
Instance29
CPXPARAM_MIP_Cuts_CPXPARAM_MIP_Cuts_Gomory-CPXPARAM_MIP_Cuts_Disjunctive-CPXPARAM_MIP_Cuts_MIRCut-CPXPARAM_MIP_Cuts_FlowCovers 0
Instance30
CPXPARAM_MIP_Cuts_CPXPARAM_MIP_Cuts_Gomory-CPXPARAM_MIP_Cuts_Disjunctive-CPXPARAM_MIP_Cuts_MIRCut-CPXPARAM_MIP_Cuts_FlowCovers 3
Instance31
CPXPARAM_MIP_Cuts_CPXPARAM_MIP_Cuts_Gomory-CPXPARAM_MIP_Cuts_Disjunctive-CPXPARAM_MIP_Cuts_MIRCut-CPXPARAM_MIP_Cuts_FlowCovers 0
Instance32
Gap




10.52%
10.26%
2.49%
2.49%
2.49%
2.45%
2.36%
CPXPARAM_MIP_Cuts_CPXPARAM_MIP_Cuts_Gomory-CPXPARAM_MIP_Cuts_Disjunctive-CPXPARAM_MIP_Cuts_MIRCut-CPXPARAM_MIP_Cuts_FlowCovers 0
Instance33
CPXPARAM_MIP_Cuts_CPXPARAM_MIP_Cuts_Gomory-CPXPARAM_MIP_Cuts_Disjunctive-CPXPARAM_MIP_Cuts_MIRCut-CPXPARAM_MIP_Cuts_FlowCovers 0
Instance34
CPXPARAM_MIP_Cuts_CPXPARAM_MIP_Cuts_Gomory-CPXPARAM_MIP_Cuts_Disjunctive-CPXPARAM_MIP_Cuts_MIRCut-CPXPARAM_MIP_Cuts_FlowCovers 3
Instance35
CPXPARAM_MIP_Cuts_CPXPARAM_MIP_Cuts_Gomory-CPXPARAM_MIP_Cuts_Disjunctive-CPXPARAM_MIP_Cuts_MIRCut-CPXPARAM_MIP_Cuts_FlowCovers 4
Instance36
Gap






0
CPXPARAM_MIP_Cuts_CPXPARAM_MIP_Cuts_Gomory-CPXPARAM_MIP_Cuts_Disjunctive-CPXPARAM_MIP_Cuts_MIRCut-CPXPARAM_MIP_Cuts_FlowCovers 0
Instance37
CPXPARAM_MIP_Cuts_CPXPARAM_MIP_Cuts_Gomory-CPXPARAM_MIP_Cuts_Disjunctive-CPXPARAM_MIP_Cuts_MIRCut-CPXPARAM_MIP_Cuts_FlowCovers 0
Instance38
CPXPARAM_MIP_Cuts_CPXPARAM_MIP_Cuts_Gomory-CPXPARAM_MIP_Cuts_Disjunctive-CPXPARAM_MIP_Cuts_MIRCut-CPXPARAM_MIP_Cuts_FlowCovers 3
Instance39
CPXPARAM_MIP_Cuts_CPXPARAM_MIP_Cuts_Gomory-CPXPARAM_MIP_Cuts_Disjunctive-CPXPARAM_MIP_Cuts_MIRCut-CPXPARAM_MIP_Cuts_FlowCovers 9
Instance40
Gap

0.01%
CPXPARAM_MIP_Cuts_CPXPARAM_MIP_Cuts_Gomory-CPXPARAM_MIP_Cuts_Disjunctive-CPXPARAM_MIP_Cuts_MIRCut-CPXPARAM_MIP_Cuts_FlowCovers 0
Instance41
CPXPARAM_MIP_Cuts_CPXPARAM_MIP_Cuts_Gomory-CPXPARAM_MIP_Cuts_Disjunctive-CPXPARAM_MIP_Cuts_MIRCut-CPXPARAM_MIP_Cuts_FlowCovers 0
Instance42
CPXPARAM_MIP_Cuts_CPXPARAM_MIP_Cuts_Gomory-CPXPARAM_MIP_Cuts_Disjunctive-CPXPARAM_MIP_Cuts_MIRCut-CPXPARAM_MIP_Cuts_FlowCovers 0
Instance43
CPXPARAM_MIP_Cuts_CPXPARAM_MIP_Cuts_Gomory-CPXPARAM_MIP_Cuts_Disjunctive-CPXPARAM_MIP_Cuts_MIRCut-CPXPARAM_MIP_Cuts_FlowCovers 0
Instance44
Gap

0.02%
0.02%
0.02%
0
CPXPARAM_MIP_Cuts_CPXPARAM_MIP_Cuts_Gomory-CPXPARAM_MIP_Cuts_Disjunctive-CPXPARAM_MIP_Cuts_MIRCut-CPXPARAM_MIP_Cuts_FlowCovers 0
Instance45
CPXPARAM_MIP_Cuts_CPXPARAM_MIP_Cuts_Gomory-CPXPARAM_MIP_Cuts_Disjunctive-CPXPARAM_MIP_Cuts_MIRCut-CPXPARAM_MIP_Cuts_FlowCovers 0
Instance46
CPXPARAM_MIP_Cuts_CPXPARAM_MIP_Cuts_Gomory-CPXPARAM_MIP_Cuts_Disjunctive-CPXPARAM_MIP_Cuts_MIRCut-CPXPARAM_MIP_Cuts_FlowCovers 0
Instance47
CPXPARAM_MIP_Cuts_CPXPARAM_MIP_Cuts_Gomory-CPXPARAM_MIP_Cuts_Disjunctive-CPXPARAM_MIP_Cuts_MIRCut-CPXPARAM_MIP_Cuts_FlowCovers 0
Instance48
Gap









9.82%
9.82%
9.82%
9.54%
CPXPARAM_MIP_Cuts_CPXPARAM_MIP_Cuts_Gomory-CPXPARAM_MIP_Cuts_Disjunctive-CPXPARAM_MIP_Cuts_MIRCut-CPXPARAM_MIP_Cuts_FlowCovers 0
Instance49
CPXPARAM_MIP_Cuts_CPXPARAM_MIP_Cuts_Gomory-CPXPARAM_MIP_Cuts_Disjunctive-CPXPARAM_MIP_Cuts_MIRCut-CPXPARAM_MIP_Cuts_FlowCovers 1
Instance50
CPXPARAM_MIP_Cuts_CPXPARAM_MIP_Cuts_Gomory-CPXPARAM_MIP_Cuts_Disjunctive-CPXPARAM_MIP_Cuts_MIRCut-CPXPARAM_MIP_Cuts_FlowCovers 1
Instance51
CPXPARAM_MIP_Cuts_CPXPARAM_MIP_Cuts_Gomory-CPXPARAM_MIP_Cuts_Disjunctive-CPXPARAM_MIP_Cuts_MIRCut-CPXPARAM_MIP_Cuts_FlowCovers 7
Instance52
Gap

37.35%
36.84%
34.72%
30.80%
28.06%
26.61%
26.52%
26.02%
CPXPARAM_MIP_Cuts_CPXPARAM_MIP_Cuts_Gomory-CPXPARAM_MIP_Cuts_Disjunctive-CPXPARAM_MIP_Cuts_MIRCut-CPXPARAM_MIP_Cuts_FlowCovers 0
Instance53
CPXPARAM_MIP_Cuts_CPXPARAM_MIP_Cuts_Gomory-CPXPARAM_MIP_Cuts_Disjunctive-CPXPARAM_MIP_Cuts_MIRCut-CPXPARAM_MIP_Cuts_FlowCovers 1
Instance54
CPXPARAM_MIP_Cuts_CPXPARAM_MIP_Cuts_Gomory-CPXPARAM_MIP_Cuts_Disjunctive-CPXPARAM_MIP_Cuts_MIRCut-CPXPARAM_MIP_Cuts_FlowCovers 2
Instance55
CPXPARAM_MIP_Cuts_CPXPARAM_MIP_Cuts_Gomory-CPXPARAM_MIP_Cuts_Disjunctive-CPXPARAM_MIP_Cuts_MIRCut-CPXPARAM_MIP_Cuts_FlowCovers 5
Instance56
Gap

1.86%
1.86%
1.86%
1.86%
0
CPXPARAM_MIP_Cuts_CPXPARAM_MIP_Cuts_Gomory-CPXPARAM_MIP_Cuts_Disjunctive-CPXPARAM_MIP_Cuts_MIRCut-CPXPARAM_MIP_Cuts_FlowCovers 0
Instance57
CPXPARAM_MIP_Cuts_CPXPARAM_MIP_Cuts_Gomory-CPXPARAM_MIP_Cuts_Disjunctive-CPXPARAM_MIP_Cuts_MIRCut-CPXPARAM_MIP_Cuts_FlowCovers 0
Instance58
CPXPARAM_MIP_Cuts_CPXPARAM_MIP_Cuts_Gomory-CPXPARAM_MIP_Cuts_Disjunctive-CPXPARAM_MIP_Cuts_MIRCut-CPXPARAM_MIP_Cuts_FlowCovers 0
Instance59
CPXPARAM_MIP_Cuts_CPXPARAM_MIP_Cuts_Gomory-CPXPARAM_MIP_Cuts_Disjunctive-CPXPARAM_MIP_Cuts_MIRCut-CPXPARAM_MIP_Cuts_FlowCovers 1
Instance60
Gap
112.51%
98.57%
98.57%
29.55%
29.55%
29.55%
CPXPARAM_MIP_Cuts_CPXPARAM_MIP_Cuts_Gomory-CPXPARAM_MIP_Cuts_Disjunctive-CPXPARAM_MIP_Cuts_MIRCut-CPXPARAM_MIP_Cuts_FlowCovers 0
Instance61
CPXPARAM_MIP_Cuts_CPXPARAM_MIP_Cuts_Gomory-CPXPARAM_MIP_Cuts_Disjunctive-CPXPARAM_MIP_Cuts_MIRCut-CPXPARAM_MIP_Cuts_FlowCovers 0
Instance62
CPXPARAM_MIP_Cuts_CPXPARAM_MIP_Cuts_Gomory-CPXPARAM_MIP_Cuts_Disjunctive-CPXPARAM_MIP_Cuts_MIRCut-CPXPARAM_MIP_Cuts_FlowCovers 2
Instance63
CPXPARAM_MIP_Cuts_CPXPARAM_MIP_Cuts_Gomory-CPXPARAM_MIP_Cuts_Disjunctive-CPXPARAM_MIP_Cuts_MIRCut-CPXPARAM_MIP_Cuts_FlowCovers 2
Instance64
Gap



1.76%
1.76%
1.76%
1.49%
1.40%
1.31%
1.31%
0.00%
CPXPARAM_MIP_Cuts_CPXPARAM_MIP_Cuts_Gomory-CPXPARAM_MIP_Cuts_Disjunctive-CPXPARAM_MIP_Cuts_MIRCut-CPXPARAM_MIP_Cuts_FlowCovers 0
Instance65
CPXPARAM_MIP_Cuts_CPXPARAM_MIP_Cuts_Gomory-CPXPARAM_MIP_Cuts_Disjunctive-CPXPARAM_MIP_Cuts_MIRCut-CPXPARAM_MIP_Cuts_FlowCovers 0
Instance66
CPXPARAM_MIP_Cuts_CPXPARAM_MIP_Cuts_Gomory-CPXPARAM_MIP_Cuts_Disjunctive-CPXPARAM_MIP_Cuts_MIRCut-CPXPARAM_MIP_Cuts_FlowCovers 2
Instance67
CPXPARAM_MIP_Cuts_CPXPARAM_MIP_Cuts_Gomory-CPXPARAM_MIP_Cuts_Disjunctive-CPXPARAM_MIP_Cuts_MIRCut-CPXPARAM_MIP_Cuts_FlowCovers 3
Instance68
Gap



46.43%
43.00%
41.84%
40.64%
40.58%
40.48%
CPXPARAM_MIP_Cuts_CPXPARAM_MIP_Cuts_Gomory-CPXPARAM_MIP_Cuts_Disjunctive-CPXPARAM_MIP_Cuts_MIRCut-CPXPARAM_MIP_Cuts_FlowCovers 1
Instance69
CPXPARAM_MIP_Cuts_CPXPARAM_MIP_Cuts_Gomory-CPXPARAM_MIP_Cuts_Disjunctive-CPXPARAM_MIP_Cuts_MIRCut-CPXPARAM_MIP_Cuts_FlowCovers 1
Instance70
CPXPARAM_MIP_Cuts_CPXPARAM_MIP_Cuts_Gomory-CPXPARAM_MIP_Cuts_Disjunctive-CPXPARAM_MIP_Cuts_MIRCut-CPXPARAM_MIP_Cuts_FlowCovers 4
Instance71
CPXPARAM_MIP_Cuts_CPXPARAM_MIP_Cuts_Gomory-CPXPARAM_MIP_Cuts_Disjunctive-CPXPARAM_MIP_Cuts_MIRCut-CPXPARAM_MIP_Cuts_FlowCovers 5
Instance72
Gap
110.91%
93.14%
93.14%
0.05%
0.05%
0.05%
0
CPXPARAM_MIP_Cuts_CPXPARAM_MIP_Cuts_Gomory-CPXPARAM_MIP_Cuts_Disjunctive-CPXPARAM_MIP_Cuts_MIRCut-CPXPARAM_MIP_Cuts_FlowCovers 0
Instance73
CPXPARAM_MIP_Cuts_CPXPARAM_MIP_Cuts_Gomory-CPXPARAM_MIP_Cuts_Disjunctive-CPXPARAM_MIP_Cuts_MIRCut-CPXPARAM_MIP_Cuts_FlowCovers 0
Instance74
CPXPARAM_MIP_Cuts_CPXPARAM_MIP_Cuts_Gomory-CPXPARAM_MIP_Cuts_Disjunctive-CPXPARAM_MIP_Cuts_MIRCut-CPXPARAM_MIP_Cuts_FlowCovers 2
Instance75
CPXPARAM_MIP_Cuts_CPXPARAM_MIP_Cuts_Gomory-CPXPARAM_MIP_Cuts_Disjunctive-CPXPARAM_MIP_Cuts_MIRCut-CPXPARAM_MIP_Cuts_FlowCovers 2
Instance76
Gap
114.31%
97.72%
97.72%
1.26%
1.26%
1.26%
1.26%
1.26%
0.93%
CPXPARAM_MIP_Cuts_CPXPARAM_MIP_Cuts_Gomory-CPXPARAM_MIP_Cuts_Disjunctive-CPXPARAM_MIP_Cuts_MIRCut-CPXPARAM_MIP_Cuts_FlowCovers 0
Instance77
CPXPARAM_MIP_Cuts_CPXPARAM_MIP_Cuts_Gomory-CPXPARAM_MIP_Cuts_Disjunctive-CPXPARAM_MIP_Cuts_MIRCut-CPXPARAM_MIP_Cuts_FlowCovers 0
Instance78
CPXPARAM_MIP_Cuts_CPXPARAM_MIP_Cuts_Gomory-CPXPARAM_MIP_Cuts_Disjunctive-CPXPARAM_MIP_Cuts_MIRCut-CPXPARAM_MIP_Cuts_FlowCovers 2
Instance79
CPXPARAM_MIP_Cuts_CPXPARAM_MIP_Cuts_Gomory-CPXPARAM_MIP_Cuts_Disjunctive-CPXPARAM_MIP_Cuts_MIRCut-CPXPARAM_MIP_Cuts_FlowCovers 2
Instance80
Gap


0.00%
CPXPARAM_MIP_Cuts_CPXPARAM_MIP_Cuts_Gomory-CPXPARAM_MIP_Cuts_Disjunctive-CPXPARAM_MIP_Cuts_MIRCut-CPXPARAM_MIP_Cuts_FlowCovers 0
Instance81
CPXPARAM_MIP_Cuts_CPXPARAM_MIP_Cuts_Gomory-CPXPARAM_MIP_Cuts_Disjunctive-CPXPARAM_MIP_Cuts_MIRCut-CPXPARAM_MIP_Cuts_FlowCovers 0
Instance82
CPXPARAM_MIP_Cuts_CPXPARAM_MIP_Cuts_Gomory-CPXPARAM_MIP_Cuts_Disjunctive-CPXPARAM_MIP_Cuts_MIRCut-CPXPARAM_MIP_Cuts_FlowCovers 0
Instance83
CPXPARAM_MIP_Cuts_CPXPARAM_MIP_Cuts_Gomory-CPXPARAM_MIP_Cuts_Disjunctive-CPXPARAM_MIP_Cuts_MIRCut-CPXPARAM_MIP_Cuts_FlowCovers 0
Instance84
Gap



23.55%
21.89%
12.55%
12.55%
6.52%
5.08%
0
CPXPARAM_MIP_Cuts_CPXPARAM_MIP_Cuts_Gomory-CPXPARAM_MIP_Cuts_Disjunctive-CPXPARAM_MIP_Cuts_MIRCut-CPXPARAM_MIP_Cuts_FlowCovers 0
Instance85
CPXPARAM_MIP_Cuts_CPXPARAM_MIP_Cuts_Gomory-CPXPARAM_MIP_Cuts_Disjunctive-CPXPARAM_MIP_Cuts_MIRCut-CPXPARAM_MIP_Cuts_FlowCovers 0
Instance86
CPXPARAM_MIP_Cuts_CPXPARAM_MIP_Cuts_Gomory-CPXPARAM_MIP_Cuts_Disjunctive-CPXPARAM_MIP_Cuts_MIRCut-CPXPARAM_MIP_Cuts_FlowCovers 0
Instance87
CPXPARAM_MIP_Cuts_CPXPARAM_MIP_Cuts_Gomory-CPXPARAM_MIP_Cuts_Disjunctive-CPXPARAM_MIP_Cuts_MIRCut-CPXPARAM_MIP_Cuts_FlowCovers 1
Instance88
Gap

0.39%
0.39%
0.39%
0.39%
0.39%
0.09%
0.04%
0.00%
CPXPARAM_MIP_Cuts_CPXPARAM_MIP_Cuts_Gomory-CPXPARAM_MIP_Cuts_Disjunctive-CPXPARAM_MIP_Cuts_MIRCut-CPXPARAM_MIP_Cuts_FlowCovers 0
Instance89
CPXPARAM_MIP_Cuts_CPXPARAM_MIP_Cuts_Gomory-CPXPARAM_MIP_Cuts_Disjunctive-CPXPARAM_MIP_Cuts_MIRCut-CPXPARAM_MIP_Cuts_FlowCovers 0
Instance90
CPXPARAM_MIP_Cuts_CPXPARAM_MIP_Cuts_Gomory-CPXPARAM_MIP_Cuts_Disjunctive-CPXPARAM_MIP_Cuts_MIRCut-CPXPARAM_MIP_Cuts_FlowCovers 2
Instance91
CPXPARAM_MIP_Cuts_CPXPARAM_MIP_Cuts_Gomory-CPXPARAM_MIP_Cuts_Disjunctive-CPXPARAM_MIP_Cuts_MIRCut-CPXPARAM_MIP_Cuts_FlowCovers 1
Instance92
Gap

3.15%
3.15%
3.15%
3.10%
0
CPXPARAM_MIP_Cuts_CPXPARAM_MIP_Cuts_Gomory-CPXPARAM_MIP_Cuts_Disjunctive-CPXPARAM_MIP_Cuts_MIRCut-CPXPARAM_MIP_Cuts_FlowCovers 0
Instance93
CPXPARAM_MIP_Cuts_CPXPARAM_MIP_Cuts_Gomory-CPXPARAM_MIP_Cuts_Disjunctive-CPXPARAM_MIP_Cuts_MIRCut-CPXPARAM_MIP_Cuts_FlowCovers 0
Instance94
CPXPARAM_MIP_Cuts_CPXPARAM_MIP_Cuts_Gomory-CPXPARAM_MIP_Cuts_Disjunctive-CPXPARAM_MIP_Cuts_MIRCut-CPXPARAM_MIP_Cuts_FlowCovers 1
Instance95
CPXPARAM_MIP_Cuts_CPXPARAM_MIP_Cuts_Gomory-CPXPARAM_MIP_Cuts_Disjunctive-CPXPARAM_MIP_Cuts_MIRCut-CPXPARAM_MIP_Cuts_FlowCovers 0
Instance96
Gap

10.00%
9.58%
7.36%
7.36%
7.36%
6.65%
6.19%
5.49%
5.49%
0
CPXPARAM_MIP_Cuts_CPXPARAM_MIP_Cuts_Gomory-CPXPARAM_MIP_Cuts_Disjunctive-CPXPARAM_MIP_Cuts_MIRCut-CPXPARAM_MIP_Cuts_FlowCovers 1
Instance97
CPXPARAM_MIP_Cuts_CPXPARAM_MIP_Cuts_Gomory-CPXPARAM_MIP_Cuts_Disjunctive-CPXPARAM_MIP_Cuts_MIRCut-CPXPARAM_MIP_Cuts_FlowCovers 0
Instance98
CPXPARAM_MIP_Cuts_CPXPARAM_MIP_Cuts_Gomory-CPXPARAM_MIP_Cuts_Disjunctive-CPXPARAM_MIP_Cuts_MIRCut-CPXPARAM_MIP_Cuts_FlowCovers 7
Instance99
CPXPARAM_MIP_Cuts_CPXPARAM_MIP_Cuts_Gomory-CPXPARAM_MIP_Cuts_Disjunctive-CPXPARAM_MIP_Cuts_MIRCut-CPXPARAM_MIP_Cuts_FlowCovers 1
Instance100
Gap



0.00%
CPXPARAM_MIP_Cuts_CPXPARAM_MIP_Cuts_Gomory-CPXPARAM_MIP_Cuts_Disjunctive-CPXPARAM_MIP_Cuts_MIRCut-CPXPARAM_MIP_Cuts_FlowCovers 0
Instance101
CPXPARAM_MIP_Cuts_CPXPARAM_MIP_Cuts_Gomory-CPXPARAM_MIP_Cuts_Disjunctive-CPXPARAM_MIP_Cuts_MIRCut-CPXPARAM_MIP_Cuts_FlowCovers 0
Instance102
CPXPARAM_MIP_Cuts_CPXPARAM_MIP_Cuts_Gomory-CPXPARAM_MIP_Cuts_Disjunctive-CPXPARAM_MIP_Cuts_MIRCut-CPXPARAM_MIP_Cuts_FlowCovers 0
Instance103
CPXPARAM_MIP_Cuts_CPXPARAM_MIP_Cuts_Gomory-CPXPARAM_MIP_Cuts_Disjunctive-CPXPARAM_MIP_Cuts_MIRCut-CPXPARAM_MIP_Cuts_FlowCovers 0
Instance104
Gap
0.00%
CPXPARAM_MIP_Cuts_CPXPARAM_MIP_Cuts_Gomory-CPXPARAM_MIP_Cuts_Disjunctive-CPXPARAM_MIP_Cuts_MIRCut-CPXPARAM_MIP_Cuts_FlowCovers 0
Instance105
CPXPARAM_MIP_Cuts_CPXPARAM_MIP_Cuts_Gomory-CPXPARAM_MIP_Cuts_Disjunctive-CPXPARAM_MIP_Cuts_MIRCut-CPXPARAM_MIP_Cuts_FlowCovers 0
Instance106
CPXPARAM_MIP_Cuts_CPXPARAM_MIP_Cuts_Gomory-CPXPARAM_MIP_Cuts_Disjunctive-CPXPARAM_MIP_Cuts_MIRCut-CPXPARAM_MIP_Cuts_FlowCovers 0
Instance107
CPXPARAM_MIP_Cuts_CPXPARAM_MIP_Cuts_Gomory-CPXPARAM_MIP_Cuts_Disjunctive-CPXPARAM_MIP_Cuts_MIRCut-CPXPARAM_MIP_Cuts_FlowCovers 0
Instance108
Gap

0.42%
0.42%
0.42%
0.42%
0.42%
0.02%
CPXPARAM_MIP_Cuts_CPXPARAM_MIP_Cuts_Gomory-CPXPARAM_MIP_Cuts_Disjunctive-CPXPARAM_MIP_Cuts_MIRCut-CPXPARAM_MIP_Cuts_FlowCovers 0
Instance109
CPXPARAM_MIP_Cuts_CPXPARAM_MIP_Cuts_Gomory-CPXPARAM_MIP_Cuts_Disjunctive-CPXPARAM_MIP_Cuts_MIRCut-CPXPARAM_MIP_Cuts_FlowCovers 0
Instance110
CPXPARAM_MIP_Cuts_CPXPARAM_MIP_Cuts_Gomory-CPXPARAM_MIP_Cuts_Disjunctive-CPXPARAM_MIP_Cuts_MIRCut-CPXPARAM_MIP_Cuts_FlowCovers 1
Instance111
CPXPARAM_MIP_Cuts_CPXPARAM_MIP_Cuts_Gomory-CPXPARAM_MIP_Cuts_Disjunctive-CPXPARAM_MIP_Cuts_MIRCut-CPXPARAM_MIP_Cuts_FlowCovers 1
Instance112
Gap





3.33%
3.33%
3.33%
3.15%
2.58%
0
CPXPARAM_MIP_Cuts_CPXPARAM_MIP_Cuts_Gomory-CPXPARAM_MIP_Cuts_Disjunctive-CPXPARAM_MIP_Cuts_MIRCut-CPXPARAM_MIP_Cuts_FlowCovers 0
Instance113
CPXPARAM_MIP_Cuts_CPXPARAM_MIP_Cuts_Gomory-CPXPARAM_MIP_Cuts_Disjunctive-CPXPARAM_MIP_Cuts_MIRCut-CPXPARAM_MIP_Cuts_FlowCovers 1
Instance114
CPXPARAM_MIP_Cuts_CPXPARAM_MIP_Cuts_Gomory-CPXPARAM_MIP_Cuts_Disjunctive-CPXPARAM_MIP_Cuts_MIRCut-CPXPARAM_MIP_Cuts_FlowCovers 3
Instance115
CPXPARAM_MIP_Cuts_CPXPARAM_MIP_Cuts_Gomory-CPXPARAM_MIP_Cuts_Disjunctive-CPXPARAM_MIP_Cuts_MIRCut-CPXPARAM_MIP_Cuts_FlowCovers 0
Instance116
Gap
111.49%
406.57%
82.87%
81.61%
79.72%
79.06%
78.69%
78.22%
78.09%
49.33%
44.90%
CPXPARAM_MIP_Cuts_CPXPARAM_MIP_Cuts_Gomory-CPXPARAM_MIP_Cuts_Disjunctive-CPXPARAM_MIP_Cuts_MIRCut-CPXPARAM_MIP_Cuts_FlowCovers 0
Instance117
CPXPARAM_MIP_Cuts_CPXPARAM_MIP_Cuts_Gomory-CPXPARAM_MIP_Cuts_Disjunctive-CPXPARAM_MIP_Cuts_MIRCut-CPXPARAM_MIP_Cuts_FlowCovers 0
Instance118
CPXPARAM_MIP_Cuts_CPXPARAM_MIP_Cuts_Gomory-CPXPARAM_MIP_Cuts_Disjunctive-CPXPARAM_MIP_Cuts_MIRCut-CPXPARAM_MIP_Cuts_FlowCovers 9
Instance119
CPXPARAM_MIP_Cuts_CPXPARAM_MIP_Cuts_Gomory-CPXPARAM_MIP_Cuts_Disjunctive-CPXPARAM_MIP_Cuts_MIRCut-CPXPARAM_MIP_Cuts_FlowCovers 0
Instance120
Gap
120.75%
227.70%
17.33%
17.33%
17.33%
17.33%
CPXPARAM_MIP_Cuts_CPXPARAM_MIP_Cuts_Gomory-CPXPARAM_MIP_Cuts_Disjunctive-CPXPARAM_MIP_Cuts_MIRCut-CPXPARAM_MIP_Cuts_FlowCovers 0
Instance121
CPXPARAM_MIP_Cuts_CPXPARAM_MIP_Cuts_Gomory-CPXPARAM_MIP_Cuts_Disjunctive-CPXPARAM_MIP_Cuts_MIRCut-CPXPARAM_MIP_Cuts_FlowCovers 0
Instance122
CPXPARAM_MIP_Cuts_CPXPARAM_MIP_Cuts_Gomory-CPXPARAM_MIP_Cuts_Disjunctive-CPXPARAM_MIP_Cuts_MIRCut-CPXPARAM_MIP_Cuts_FlowCovers 3
Instance123
CPXPARAM_MIP_Cuts_CPXPARAM_MIP_Cuts_Gomory-CPXPARAM_MIP_Cuts_Disjunctive-CPXPARAM_MIP_Cuts_MIRCut-CPXPARAM_MIP_Cuts_FlowCovers 0
Instance124
Gap

5.20%
5.20%
5.20%
5.20%
5.20%
0.00%
CPXPARAM_MIP_Cuts_CPXPARAM_MIP_Cuts_Gomory-CPXPARAM_MIP_Cuts_Disjunctive-CPXPARAM_MIP_Cuts_MIRCut-CPXPARAM_MIP_Cuts_FlowCovers 0
Instance125
CPXPARAM_MIP_Cuts_CPXPARAM_MIP_Cuts_Gomory-CPXPARAM_MIP_Cuts_Disjunctive-CPXPARAM_MIP_Cuts_MIRCut-CPXPARAM_MIP_Cuts_FlowCovers 0
Instance126
CPXPARAM_MIP_Cuts_CPXPARAM_MIP_Cuts_Gomory-CPXPARAM_MIP_Cuts_Disjunctive-CPXPARAM_MIP_Cuts_MIRCut-CPXPARAM_MIP_Cuts_FlowCovers 2
Instance127
CPXPARAM_MIP_Cuts_CPXPARAM_MIP_Cuts_Gomory-CPXPARAM_MIP_Cuts_Disjunctive-CPXPARAM_MIP_Cuts_MIRCut-CPXPARAM_MIP_Cuts_FlowCovers 0
Instance128
Gap





4.12%
4.12%
4.12%
3.72%
0
CPXPARAM_MIP_Cuts_CPXPARAM_MIP_Cuts_Gomory-CPXPARAM_MIP_Cuts_Disjunctive-CPXPARAM_MIP_Cuts_MIRCut-CPXPARAM_MIP_Cuts_FlowCovers 0
Instance129
CPXPARAM_MIP_Cuts_CPXPARAM_MIP_Cuts_Gomory-CPXPARAM_MIP_Cuts_Disjunctive-CPXPARAM_MIP_Cuts_MIRCut-CPXPARAM_MIP_Cuts_FlowCovers 0
Instance130
CPXPARAM_MIP_Cuts_CPXPARAM_MIP_Cuts_Gomory-CPXPARAM_MIP_Cuts_Disjunctive-CPXPARAM_MIP_Cuts_MIRCut-CPXPARAM_MIP_Cuts_FlowCovers 5
Instance131
CPXPARAM_MIP_Cuts_CPXPARAM_MIP_Cuts_Gomory-CPXPARAM_MIP_Cuts_Disjunctive-CPXPARAM_MIP_Cuts_MIRCut-CPXPARAM_MIP_Cuts_FlowCovers 1
Instance132
Gap



36.81%
0
CPXPARAM_MIP_Cuts_CPXPARAM_MIP_Cuts_Gomory-CPXPARAM_MIP_Cuts_Disjunctive-CPXPARAM_MIP_Cuts_MIRCut-CPXPARAM_MIP_Cuts_FlowCovers 0
Instance133
CPXPARAM_MIP_Cuts_CPXPARAM_MIP_Cuts_Gomory-CPXPARAM_MIP_Cuts_Disjunctive-CPXPARAM_MIP_Cuts_MIRCut-CPXPARAM_MIP_Cuts_FlowCovers 0
Instance134
CPXPARAM_MIP_Cuts_CPXPARAM_MIP_Cuts_Gomory-CPXPARAM_MIP_Cuts_Disjunctive-CPXPARAM_MIP_Cuts_MIRCut-CPXPARAM_MIP_Cuts_FlowCovers 1
Instance135
CPXPARAM_MIP_Cuts_CPXPARAM_MIP_Cuts_Gomory-CPXPARAM_MIP_Cuts_Disjunctive-CPXPARAM_MIP_Cuts_MIRCut-CPXPARAM_MIP_Cuts_FlowCovers 3
Instance136
Gap

0.14%
0
CPXPARAM_MIP_Cuts_CPXPARAM_MIP_Cuts_Gomory-CPXPARAM_MIP_Cuts_Disjunctive-CPXPARAM_MIP_Cuts_MIRCut-CPXPARAM_MIP_Cuts_FlowCovers 0
Instance137
CPXPARAM_MIP_Cuts_CPXPARAM_MIP_Cuts_Gomory-CPXPARAM_MIP_Cuts_Disjunctive-CPXPARAM_MIP_Cuts_MIRCut-CPXPARAM_MIP_Cuts_FlowCovers 0
Instance138
CPXPARAM_MIP_Cuts_CPXPARAM_MIP_Cuts_Gomory-CPXPARAM_MIP_Cuts_Disjunctive-CPXPARAM_MIP_Cuts_MIRCut-CPXPARAM_MIP_Cuts_FlowCovers 0
Instance139
CPXPARAM_MIP_Cuts_CPXPARAM_MIP_Cuts_Gomory-CPXPARAM_MIP_Cuts_Disjunctive-CPXPARAM_MIP_Cuts_MIRCut-CPXPARAM_MIP_Cuts_FlowCovers 0
Instance140
Gap

2.41%
2.41%
2.41%
2.35%
0
CPXPARAM_MIP_Cuts_CPXPARAM_MIP_Cuts_Gomory-CPXPARAM_MIP_Cuts_Disjunctive-CPXPARAM_MIP_Cuts_MIRCut-CPXPARAM_MIP_Cuts_FlowCovers 0
Instance141
CPXPARAM_MIP_Cuts_CPXPARAM_MIP_Cuts_Gomory-CPXPARAM_MIP_Cuts_Disjunctive-CPXPARAM_MIP_Cuts_MIRCut-CPXPARAM_MIP_Cuts_FlowCovers 0
Instance142
CPXPARAM_MIP_Cuts_CPXPARAM_MIP_Cuts_Gomory-CPXPARAM_MIP_Cuts_Disjunctive-CPXPARAM_MIP_Cuts_MIRCut-CPXPARAM_MIP_Cuts_FlowCovers 1
Instance143
CPXPARAM_MIP_Cuts_CPXPARAM_MIP_Cuts_Gomory-CPXPARAM_MIP_Cuts_Disjunctive-CPXPARAM_MIP_Cuts_MIRCut-CPXPARAM_MIP_Cuts_FlowCovers 0
Instance144
Gap



6.99%
6.99%
6.99%
6.43%
6.27%
6.07%
6.05%
6.05%
0
CPXPARAM_MIP_Cuts_CPXPARAM_MIP_Cuts_Gomory-CPXPARAM_MIP_Cuts_Disjunctive-CPXPARAM_MIP_Cuts_MIRCut-CPXPARAM_MIP_Cuts_FlowCovers 0
Instance145
CPXPARAM_MIP_Cuts_CPXPARAM_MIP_Cuts_Gomory-CPXPARAM_MIP_Cuts_Disjunctive-CPXPARAM_MIP_Cuts_MIRCut-CPXPARAM_MIP_Cuts_FlowCovers 0
Instance146
CPXPARAM_MIP_Cuts_CPXPARAM_MIP_Cuts_Gomory-CPXPARAM_MIP_Cuts_Disjunctive-CPXPARAM_MIP_Cuts_MIRCut-CPXPARAM_MIP_Cuts_FlowCovers 5
Instance147
CPXPARAM_MIP_Cuts_CPXPARAM_MIP_Cuts_Gomory-CPXPARAM_MIP_Cuts_Disjunctive-CPXPARAM_MIP_Cuts_MIRCut-CPXPARAM_MIP_Cuts_FlowCovers 1
Instance148
Gap








105.68%
104.29%
CPXPARAM_MIP_Cuts_CPXPARAM_MIP_Cuts_Gomory-CPXPARAM_MIP_Cuts_Disjunctive-CPXPARAM_MIP_Cuts_MIRCut-CPXPARAM_MIP_Cuts_FlowCovers 0
Instance149
CPXPARAM_MIP_Cuts_CPXPARAM_MIP_Cuts_Gomory-CPXPARAM_MIP_Cuts_Disjunctive-CPXPARAM_MIP_Cuts_MIRCut-CPXPARAM_MIP_Cuts_FlowCovers 0
Instance150
CPXPARAM_MIP_Cuts_CPXPARAM_MIP_Cuts_Gomory-CPXPARAM_MIP_Cuts_Disjunctive-CPXPARAM_MIP_Cuts_MIRCut-CPXPARAM_MIP_Cuts_FlowCovers 1
Instance151
CPXPARAM_MIP_Cuts_CPXPARAM_MIP_Cuts_Gomory-CPXPARAM_MIP_Cuts_Disjunctive-CPXPARAM_MIP_Cuts_MIRCut-CPXPARAM_MIP_Cuts_FlowCovers 11
Instance152
Gap

0.21%
0.21%
0.21%
0.21%
0
CPXPARAM_MIP_Cuts_CPXPARAM_MIP_Cuts_Gomory-CPXPARAM_MIP_Cuts_Disjunctive-CPXPARAM_MIP_Cuts_MIRCut-CPXPARAM_MIP_Cuts_FlowCovers 0
Instance153
CPXPARAM_MIP_Cuts_CPXPARAM_MIP_Cuts_Gomory-CPXPARAM_MIP_Cuts_Disjunctive-CPXPARAM_MIP_Cuts_MIRCut-CPXPARAM_MIP_Cuts_FlowCovers 0
Instance154
CPXPARAM_MIP_Cuts_CPXPARAM_MIP_Cuts_Gomory-CPXPARAM_MIP_Cuts_Disjunctive-CPXPARAM_MIP_Cuts_MIRCut-CPXPARAM_MIP_Cuts_FlowCovers 1
Instance155
CPXPARAM_MIP_Cuts_CPXPARAM_MIP_Cuts_Gomory-CPXPARAM_MIP_Cuts_Disjunctive-CPXPARAM_MIP_Cuts_MIRCut-CPXPARAM_MIP_Cuts_FlowCovers 1
Instance156
Gap


0.50%
0.50%
0.50%
0
CPXPARAM_MIP_Cuts_CPXPARAM_MIP_Cuts_Gomory-CPXPARAM_MIP_Cuts_Disjunctive-CPXPARAM_MIP_Cuts_MIRCut-CPXPARAM_MIP_Cuts_FlowCovers 0
Instance157
CPXPARAM_MIP_Cuts_CPXPARAM_MIP_Cuts_Gomory-CPXPARAM_MIP_Cuts_Disjunctive-CPXPARAM_MIP_Cuts_MIRCut-CPXPARAM_MIP_Cuts_FlowCovers 0
Instance158
CPXPARAM_MIP_Cuts_CPXPARAM_MIP_Cuts_Gomory-CPXPARAM_MIP_Cuts_Disjunctive-CPXPARAM_MIP_Cuts_MIRCut-CPXPARAM_MIP_Cuts_FlowCovers 0
Instance159
CPXPARAM_MIP_Cuts_CPXPARAM_MIP_Cuts_Gomory-CPXPARAM_MIP_Cuts_Disjunctive-CPXPARAM_MIP_Cuts_MIRCut-CPXPARAM_MIP_Cuts_FlowCovers 0
